************************************************************************
file with basedata            : j60_63.bas
initial value random generator: 726628042
************************************************************************
projects                      :  1
jobs (incl. supersource/sink ):  62
horizon                       :  321
RESOURCES
  - renewable                 :  4   R
  - nonrenewable              :  0   N
  - doubly constrained        :  0   D
************************************************************************
PROJECT INFORMATION:
pronr.  #jobs rel.date duedate tardcost  MPM-Time
    1     60      0       66       47       66
************************************************************************
PRECEDENCE RELATIONS:
jobnr.    #modes  #successors   successors
   1        1          3           2   3   4
   2        1          3           5   7  32
   3        1          3           8  10  32
   4        1          3           6  25  34
   5        1          3          14  15  35
   6        1          3          22  26  30
   7        1          3          12  19  29
   8        1          3           9  11  24
   9        1          3          20  21  42
  10        1          3          19  26  28
  11        1          3          20  43  61
  12        1          3          13  23  38
  13        1          3          16  26  51
  14        1          3          19  27  52
  15        1          3          17  18  31
  16        1          3          33  41  58
  17        1          3          34  49  50
  18        1          3          38  44  45
  19        1          1          23
  20        1          3          30  33  35
  21        1          3          25  28  55
  22        1          3          41  43  60
  23        1          3          36  37  41
  24        1          3          27  29  43
  25        1          3          38  40  44
  26        1          3          42  44  56
  27        1          3          30  42  51
  28        1          2          58  59
  29        1          1          33
  30        1          2          31  36
  31        1          3          40  45  46
  32        1          3          34  37  40
  33        1          3          36  50  59
  34        1          1          39
  35        1          2          46  53
  36        1          2          39  55
  37        1          3          39  46  47
  38        1          2          47  52
  39        1          1          45
  40        1          1          48
  41        1          1          53
  42        1          1          58
  43        1          1          54
  44        1          2          48  50
  45        1          1          56
  46        1          1          55
  47        1          3          48  49  56
  48        1          1          53
  49        1          2          51  61
  50        1          1          52
  51        1          2          54  60
  52        1          1          57
  53        1          1          54
  54        1          1          59
  55        1          1          57
  56        1          1          57
  57        1          1          60
  58        1          1          61
  59        1          1          62
  60        1          1          62
  61        1          1          62
  62        1          0        
************************************************************************
REQUESTS/DURATIONS:
jobnr. mode duration  R 1  R 2  R 3  R 4
------------------------------------------------------------------------
  1      1     0       0    0    0    0
  2      1     1       1    6    9    9
  3      1     9       6    7    2    8
  4      1     5       8    4    3   10
  5      1    10       1    2    6    6
  6      1     4       7    3    8   10
  7      1    10       9    8    7    4
  8      1     2       2    8    8    4
  9      1     3       4    4   10    5
 10      1     4       8    3    7    7
 11      1    10       4   10    9    9
 12      1     3       7    6    4    2
 13      1     8       4    4    1    4
 14      1     2      10   10    8    8
 15      1     7       6    1    3    8
 16      1     1       8    1    4    9
 17      1     4       9    9    2    3
 18      1    10      10    1    1    7
 19      1     7       7    4    7    5
 20      1     4       3   10    3    2
 21      1     9       5    2    7    2
 22      1     6       9    2    1    1
 23      1     2       9    7    4    2
 24      1     1       9   10    5    9
 25      1     2       8    1    1    9
 26      1     1       5    7    6    5
 27      1     9       1    9    1    9
 28      1     8       1    7    5    3
 29      1     2       7    8    8    5
 30      1     4       7    7    9    8
 31      1     5       8    5    4    8
 32      1     8       2    5    3    8
 33      1     2       5    4    4    6
 34      1     9       3    7    1    8
 35      1     7      10    9    3    1
 36      1     4       1    8    3    8
 37      1     1       7    6    5    2
 38      1     8       9    7    1    3
 39      1     5       8    9    3    5
 40      1     6       8    7    6    8
 41      1     1      10    2    8    2
 42      1     1       2   10    5    7
 43      1     8       7    5   10   10
 44      1     4      10    7    7    4
 45      1     3      10    3    5   10
 46      1     6      10    3    5    5
 47      1     3      10    7    9    1
 48      1     2       5    1    2    9
 49      1     3       3    1    3    6
 50      1     4       5    7    8    4
 51      1     9       6    9   10    5
 52      1     9      10    2    6    8
 53      1     9       9    3   10    8
 54      1     8       4   10    4    1
 55      1     1       2    4    1    2
 56      1    10       2   10    5   10
 57      1     7       3    8    6    1
 58      1    10       5    7    3    8
 59      1     2       6    4    8    3
 60      1     8       1    7    6    8
 61      1    10       7   10    6    2
 62      1     0       0    0    0    0
************************************************************************
RESOURCEAVAILABILITIES:
  R 1  R 2  R 3  R 4
   44   39   40   43
************************************************************************
